NAME: Li_25
COMMENT: 16902.16
TYPE: CVRP
DIMENSION: 761
CAPACITY: 900
DISTANCE: 900
EDGE_WEIGHT_TYPE: FUNCTION
EDGE_WEIGHT_FORMAT: EUC_2D
NODE_COORD_TYPE: TWOD_COORDS
NODE_COORD_SECTION
1 30.0000 0.0000
2 29.8975 2.4774
3 29.5908 4.9378
4 29.0820 7.3646
5 28.3745 9.7410
6 27.4732 12.0509
7 26.3842 14.2784
8 25.1150 16.4084
9 23.6742 18.4264
10 22.0717 20.3184
11 20.3184 22.0717
12 18.4264 23.6742
13 16.4084 25.1150
14 14.2784 26.3842
15 12.0509 27.4732
16 9.7410 28.3745
17 7.3646 29.0820
18 4.9378 29.5908
19 2.4774 29.8975
20 0.0000 30.0000
21 -2.4774 29.8975
22 -4.9378 29.5908
23 -7.3646 29.0820
24 -9.7410 28.3745
25 -12.0509 27.4732
26 -14.2784 26.3842
27 -16.4084 25.1150
28 -18.4264 23.6742
29 -20.3184 22.0717
30 -22.0717 20.3184
31 -23.6742 18.4264
32 -25.1150 16.4084
33 -26.3842 14.2784
34 -27.4732 12.0509
35 -28.3745 9.7410
36 -29.0820 7.3646
37 -29.5908 4.9378
38 -29.8975 2.4774
39 -30.0000 0.0000
40 -29.8975 -2.4774
41 -29.5908 -4.9378
42 -29.0820 -7.3646
43 -28.3745 -9.7410
44 -27.4732 -12.0509
45 -26.3842 -14.2784
46 -25.1150 -16.4084
47 -23.6742 -18.4264
48 -22.0717 -20.3184
49 -20.3184 -22.0717
50 -18.4264 -23.6742
51 -16.4084 -25.1150
52 -14.2784 -26.3842
53 -12.0509 -27.4732
54 -9.7410 -28.3745
55 -7.3646 -29.0820
56 -4.9378 -29.5908
57 -2.4774 -29.8975
58 -0.0000 -30.0000
59 2.4774 -29.8975
60 4.9378 -29.5908
61 7.3646 -29.0820
62 9.7410 -28.3745
63 12.0509 -27.4732
64 14.2784 -26.3842
65 16.4084 -25.1150
66 18.4264 -23.6742
67 20.3184 -22.0717
68 22.0717 -20.3184
69 23.6742 -18.4264
70 25.1150 -16.4084
71 26.3842 -14.2784
72 27.4732 -12.0509
73 28.3745 -9.7410
74 29.0820 -7.3646
75 29.5908 -4.9378
76 29.8975 -2.4774
77 60.0000 0.0000
78 59.7951 4.9548
79 59.1817 9.8757
80 58.1640 14.7291
81 56.7490 19.4820
82 54.9464 24.1017
83 52.7684 28.5568
84 50.2300 32.8169
85 47.3484 36.8528
86 44.1434 40.6369
87 40.6369 44.1434
88 36.8528 47.3484
89 32.8169 50.2300
90 28.5568 52.7684
91 24.1017 54.9464
92 19.4820 56.7490
93 14.7291 58.1640
94 9.8757 59.1817
95 4.9548 59.7951
96 0.0000 60.0000
97 -4.9548 59.7951
98 -9.8757 59.1817
99 -14.7291 58.1640
100 -19.4820 56.7490
101 -24.1017 54.9464
102 -28.5568 52.7684
103 -32.8169 50.2300
104 -36.8528 47.3484
105 -40.6369 44.1434
106 -44.1434 40.6369
107 -47.3484 36.8528
108 -50.2300 32.8169
109 -52.7684 28.5568
110 -54.9464 24.1017
111 -56.7490 19.4820
112 -58.1640 14.7291
113 -59.1817 9.8757
114 -59.7951 4.9548
115 -60.0000 0.0000
116 -59.7951 -4.9548
117 -59.1817 -9.8757
118 -58.1640 -14.7291
119 -56.7490 -19.4820
120 -54.9464 -24.1017
121 -52.7684 -28.5568
122 -50.2300 -32.8169
123 -47.3484 -36.8528
124 -44.1434 -40.6369
125 -40.6369 -44.1434
126 -36.8528 -47.3484
127 -32.8169 -50.2300
128 -28.5568 -52.7684
129 -24.1017 -54.9464
130 -19.4820 -56.7490
131 -14.7291 -58.1640
132 -9.8757 -59.1817
133 -4.9548 -59.7951
134 -0.0000 -60.0000
135 4.9548 -59.7951
136 9.8757 -59.1817
137 14.7291 -58.1640
138 19.4820 -56.7490
139 24.1017 -54.9464
140 28.5568 -52.7684
141 32.8169 -50.2300
142 36.8528 -47.3484
143 40.6369 -44.1434
144 44.1434 -40.6369
145 47.3484 -36.8528
146 50.2300 -32.8169
147 52.7684 -28.5568
148 54.9464 -24.1017
149 56.7490 -19.4820
150 58.1640 -14.7291
151 59.1817 -9.8757
152 59.7951 -4.9548
153 90.0000 0.0000
154 89.6926 7.4321
155 88.7725 14.8135
156 87.2460 22.0937
157 85.1236 29.2230
158 82.4196 36.1526
159 79.1526 42.8353
160 75.3450 49.2253
161 71.0226 55.2791
162 66.2152 60.9553
163 60.9553 66.2152
164 55.2791 71.0226
165 49.2253 75.3450
166 42.8353 79.1526
167 36.1526 82.4196
168 29.2230 85.1236
169 22.0937 87.2460
170 14.8135 88.7725
171 7.4321 89.6926
172 0.0000 90.0000
173 -7.4321 89.6926
174 -14.8135 88.7725
175 -22.0937 87.2460
176 -29.2230 85.1236
177 -36.1526 82.4196
178 -42.8353 79.1526
179 -49.2253 75.3450
180 -55.2791 71.0226
181 -60.9553 66.2152
182 -66.2152 60.9553
183 -71.0226 55.2791
184 -75.3450 49.2253
185 -79.1526 42.8353
186 -82.4196 36.1526
187 -85.1236 29.2230
188 -87.2460 22.0937
189 -88.7725 14.8135
190 -89.6926 7.4321
191 -90.0000 0.0000
192 -89.6926 -7.4321
193 -88.7725 -14.8135
194 -87.2460 -22.0937
195 -85.1236 -29.2230
196 -82.4196 -36.1526
197 -79.1526 -42.8353
198 -75.3450 -49.2253
199 -71.0226 -55.2791
200 -66.2152 -60.9553
201 -60.9553 -66.2152
202 -55.2791 -71.0226
203 -49.2253 -75.3450
204 -42.8353 -79.1526
205 -36.1526 -82.4196
206 -29.2230 -85.1236
207 -22.0937 -87.2460
208 -14.8135 -88.7725
209 -7.4321 -89.6926
210 -0.0000 -90.0000
211 7.4321 -89.6926
212 14.8135 -88.7725
213 22.0937 -87.2460
214 29.2230 -85.1236
215 36.1526 -82.4196
216 42.8353 -79.1526
217 49.2253 -75.3450
218 55.2791 -71.0226
219 60.9553 -66.2152
220 66.2152 -60.9553
221 71.0226 -55.2791
222 75.3450 -49.2253
223 79.1526 -42.8353
224 82.4196 -36.1526
225 85.1236 -29.2230
226 87.2460 -22.0937
227 88.7725 -14.8135
228 89.6926 -7.4321
229 120.0000 0.0000
230 119.5901 9.9095
231 118.3634 19.7514
232 116.3280 29.4583
233 113.4981 38.9639
234 109.8928 48.2035
235 105.5369 57.1137
236 100.4600 65.6338
237 94.6969 73.7055
238 88.2869 81.2738
239 81.2738 88.2869
240 73.7055 94.6969
241 65.6338 100.4600
242 57.1137 105.5369
243 48.2035 109.8928
244 38.9639 113.4981
245 29.4583 116.3280
246 19.7514 118.3634
247 9.9095 119.5901
248 0.0000 120.0000
249 -9.9095 119.5901
250 -19.7514 118.3634
251 -29.4583 116.3280
252 -38.9639 113.4981
253 -48.2035 109.8928
254 -57.1137 105.5369
255 -65.6338 100.4600
256 -73.7055 94.6969
257 -81.2738 88.2869
258 -88.2869 81.2738
259 -94.6969 73.7055
260 -100.4600 65.6338
261 -105.5369 57.1137
262 -109.8928 48.2035
263 -113.4981 38.9639
264 -116.3280 29.4583
265 -118.3634 19.7514
266 -119.5901 9.9095
267 -120.0000 0.0000
268 -119.5901 -9.9095
269 -118.3634 -19.7514
270 -116.3280 -29.4583
271 -113.4981 -38.9639
272 -109.8928 -48.2035
273 -105.5369 -57.1137
274 -100.4600 -65.6338
275 -94.6969 -73.7055
276 -88.2869 -81.2738
277 -81.2738 -88.2869
278 -73.7055 -94.6969
279 -65.6338 -100.4600
280 -57.1137 -105.5369
281 -48.2035 -109.8928
282 -38.9639 -113.4981
283 -29.4583 -116.3280
284 -19.7514 -118.3634
285 -9.9095 -119.5901
286 -0.0000 -120.0000
287 9.9095 -119.5901
288 19.7514 -118.3634
289 29.4583 -116.3280
290 38.9639 -113.4981
291 48.2035 -109.8928
292 57.1137 -105.5369
293 65.6338 -100.4600
294 73.7055 -94.6969
295 81.2738 -88.2869
296 88.2869 -81.2738
297 94.6969 -73.7055
298 100.4600 -65.6338
299 105.5369 -57.1137
300 109.8928 -48.2035
301 113.4981 -38.9639
302 116.3280 -29.4583
303 118.3634 -19.7514
304 119.5901 -9.9095
305 150.0000 0.0000
306 149.4877 12.3869
307 147.9542 24.6892
308 145.4100 36.8228
309 141.8726 48.7049
310 137.3660 60.2543
311 131.9211 71.3921
312 125.5750 82.0422
313 118.3711 92.1319
314 110.3586 101.5922
315 101.5922 110.3586
316 92.1319 118.3711
317 82.0422 125.5750
318 71.3921 131.9211
319 60.2543 137.3660
320 48.7049 141.8726
321 36.8228 145.4100
322 24.6892 147.9542
323 12.3869 149.4877
324 0.0000 150.0000
325 -12.3869 149.4877
326 -24.6892 147.9542
327 -36.8228 145.4100
328 -48.7049 141.8726
329 -60.2543 137.3660
330 -71.3921 131.9211
331 -82.0422 125.5750
332 -92.1319 118.3711
333 -101.5922 110.3586
334 -110.3586 101.5922
335 -118.3711 92.1319
336 -125.5750 82.0422
337 -131.9211 71.3921
338 -137.3660 60.2543
339 -141.8726 48.7049
340 -145.4100 36.8228
341 -147.9542 24.6892
342 -149.4877 12.3869
343 -150.0000 0.0000
344 -149.4877 -12.3869
345 -147.9542 -24.6892
346 -145.4100 -36.8228
347 -141.8726 -48.7049
348 -137.3660 -60.2543
349 -131.9211 -71.3921
350 -125.5750 -82.0422
351 -118.3711 -92.1319
352 -110.3586 -101.5922
353 -101.5922 -110.3586
354 -92.1319 -118.3711
355 -82.0422 -125.5750
356 -71.3921 -131.9211
357 -60.2543 -137.3660
358 -48.7049 -141.8726
359 -36.8228 -145.4100
360 -24.6892 -147.9542
361 -12.3869 -149.4877
362 -0.0000 -150.0000
363 12.3869 -149.4877
364 24.6892 -147.9542
365 36.8228 -145.4100
366 48.7049 -141.8726
367 60.2543 -137.3660
368 71.3921 -131.9211
369 82.0422 -125.5750
370 92.1319 -118.3711
371 101.5922 -110.3586
372 110.3586 -101.5922
373 118.3711 -92.1319
374 125.5750 -82.0422
375 131.9211 -71.3921
376 137.3660 -60.2543
377 141.8726 -48.7049
378 145.4100 -36.8228
379 147.9542 -24.6892
380 149.4877 -12.3869
381 180.0000 0.0000
382 179.3852 14.8643
383 177.5450 29.6270
384 174.4920 44.1874
385 170.2471 58.4459
386 164.8392 72.3052
387 158.3053 85.6705
388 150.6900 98.4507
389 142.0453 110.5583
390 132.4303 121.9107
391 121.9107 132.4303
392 110.5583 142.0453
393 98.4507 150.6900
394 85.6705 158.3053
395 72.3052 164.8392
396 58.4459 170.2471
397 44.1874 174.4920
398 29.6270 177.5450
399 14.8643 179.3852
400 0.0000 180.0000
401 -14.8643 179.3852
402 -29.6270 177.5450
403 -44.1874 174.4920
404 -58.4459 170.2471
405 -72.3052 164.8392
406 -85.6705 158.3053
407 -98.4507 150.6900
408 -110.5583 142.0453
409 -121.9107 132.4303
410 -132.4303 121.9107
411 -142.0453 110.5583
412 -150.6900 98.4507
413 -158.3053 85.6705
414 -164.8392 72.3052
415 -170.2471 58.4459
416 -174.4920 44.1874
417 -177.5450 29.6270
418 -179.3852 14.8643
419 -180.0000 0.0000
420 -179.3852 -14.8643
421 -177.5450 -29.6270
422 -174.4920 -44.1874
423 -170.2471 -58.4459
424 -164.8392 -72.3052
425 -158.3053 -85.6705
426 -150.6900 -98.4507
427 -142.0453 -110.5583
428 -132.4303 -121.9107
429 -121.9107 -132.4303
430 -110.5583 -142.0453
431 -98.4507 -150.6900
432 -85.6705 -158.3053
433 -72.3052 -164.8392
434 -58.4459 -170.2471
435 -44.1874 -174.4920
436 -29.6270 -177.5450
437 -14.8643 -179.3852
438 -0.0000 -180.0000
439 14.8643 -179.3852
440 29.6270 -177.5450
441 44.1874 -174.4920
442 58.4459 -170.2471
443 72.3052 -164.8392
444 85.6705 -158.3053
445 98.4507 -150.6900
446 110.5583 -142.0453
447 121.9107 -132.4303
448 132.4303 -121.9107
449 142.0453 -110.5583
450 150.6900 -98.4507
451 158.3053 -85.6705
452 164.8392 -72.3052
453 170.2471 -58.4459
454 174.4920 -44.1874
455 177.5450 -29.6270
456 179.3852 -14.8643
457 210.0000 0.0000
458 209.2827 17.3417
459 207.1359 34.5649
460 203.5741 51.5520
461 198.6216 68.1869
462 192.3124 84.3560
463 184.6895 99.9490
464 175.8050 114.8591
465 165.7195 128.9847
466 154.5020 142.2291
467 142.2291 154.5020
468 128.9847 165.7195
469 114.8591 175.8050
470 99.9490 184.6895
471 84.3560 192.3124
472 68.1869 198.6216
473 51.5520 203.5741
474 34.5649 207.1359
475 17.3417 209.2827
476 0.0000 210.0000
477 -17.3417 209.2827
478 -34.5649 207.1359
479 -51.5520 203.5741
480 -68.1869 198.6216
481 -84.3560 192.3124
482 -99.9490 184.6895
483 -114.8591 175.8050
484 -128.9847 165.7195
485 -142.2291 154.5020
486 -154.5020 142.2291
487 -165.7195 128.9847
488 -175.8050 114.8591
489 -184.6895 99.9490
490 -192.3124 84.3560
491 -198.6216 68.1869
492 -203.5741 51.5520
493 -207.1359 34.5649
494 -209.2827 17.3417
495 -210.0000 0.0000
496 -209.2827 -17.3417
497 -207.1359 -34.5649
498 -203.5741 -51.5520
499 -198.6216 -68.1869
500 -192.3124 -84.3560
501 -184.6895 -99.9490
502 -175.8050 -114.8591
503 -165.7195 -128.9847
504 -154.5020 -142.2291
505 -142.2291 -154.5020
506 -128.9847 -165.7195
507 -114.8591 -175.8050
508 -99.9490 -184.6895
509 -84.3560 -192.3124
510 -68.1869 -198.6216
511 -51.5520 -203.5741
512 -34.5649 -207.1359
513 -17.3417 -209.2827
514 -0.0000 -210.0000
515 17.3417 -209.2827
516 34.5649 -207.1359
517 51.5520 -203.5741
518 68.1869 -198.6216
519 84.3560 -192.3124
520 99.9490 -184.6895
521 114.8591 -175.8050
522 128.9847 -165.7195
523 142.2291 -154.5020
524 154.5020 -142.2291
525 165.7195 -128.9847
526 175.8050 -114.8591
527 184.6895 -99.9490
528 192.3124 -84.3560
529 198.6216 -68.1869
530 203.5741 -51.5520
531 207.1359 -34.5649
532 209.2827 -17.3417
533 240.0000 0.0000
534 239.1803 19.8190
535 236.7267 39.5027
536 232.6561 58.9165
537 226.9961 77.9279
538 219.7856 96.4069
539 211.0737 114.2274
540 200.9200 131.2676
541 189.3937 147.4111
542 176.5737 162.5476
543 162.5476 176.5737
544 147.4111 189.3937
545 131.2676 200.9200
546 114.2274 211.0737
547 96.4069 219.7856
548 77.9279 226.9961
549 58.9165 232.6561
550 39.5027 236.7267
551 19.8190 239.1803
552 0.0000 240.0000
553 -19.8190 239.1803
554 -39.5027 236.7267
555 -58.9165 232.6561
556 -77.9279 226.9961
557 -96.4069 219.7856
558 -114.2274 211.0737
559 -131.2676 200.9200
560 -147.4111 189.3937
561 -162.5476 176.5737
562 -176.5737 162.5476
563 -189.3937 147.4111
564 -200.9200 131.2676
565 -211.0737 114.2274
566 -219.7856 96.4069
567 -226.9961 77.9279
568 -232.6561 58.9165
569 -236.7267 39.5027
570 -239.1803 19.8190
571 -240.0000 0.0000
572 -239.1803 -19.8190
573 -236.7267 -39.5027
574 -232.6561 -58.9165
575 -226.9961 -77.9279
576 -219.7856 -96.4069
577 -211.0737 -114.2274
578 -200.9200 -131.2676
579 -189.3937 -147.4111
580 -176.5737 -162.5476
581 -162.5476 -176.5737
582 -147.4111 -189.3937
583 -131.2676 -200.9200
584 -114.2274 -211.0737
585 -96.4069 -219.7856
586 -77.9279 -226.9961
587 -58.9165 -232.6561
588 -39.5027 -236.7267
589 -19.8190 -239.1803
590 -0.0000 -240.0000
591 19.8190 -239.1803
592 39.5027 -236.7267
593 58.9165 -232.6561
594 77.9279 -226.9961
595 96.4069 -219.7856
596 114.2274 -211.0737
597 131.2676 -200.9200
598 147.4111 -189.3937
599 162.5476 -176.5737
600 176.5737 -162.5476
601 189.3937 -147.4111
602 200.9200 -131.2676
603 211.0737 -114.2274
604 219.7856 -96.4069
605 226.9961 -77.9279
606 232.6561 -58.9165
607 236.7267 -39.5027
608 239.1803 -19.8190
609 270.0000 0.0000
610 269.0778 22.2964
611 266.3176 44.4405
612 261.7381 66.2811
613 255.3707 87.6689
614 247.2588 108.4578
615 237.4579 128.5058
616 226.0349 147.6760
617 213.0679 165.8374
618 198.6455 182.8660
619 182.8660 198.6455
620 165.8374 213.0679
621 147.6760 226.0349
622 128.5058 237.4579
623 108.4578 247.2588
624 87.6689 255.3707
625 66.2811 261.7381
626 44.4405 266.3176
627 22.2964 269.0778
628 0.0000 270.0000
629 -22.2964 269.0778
630 -44.4405 266.3176
631 -66.2811 261.7381
632 -87.6689 255.3707
633 -108.4578 247.2588
634 -128.5058 237.4579
635 -147.6760 226.0349
636 -165.8374 213.0679
637 -182.8660 198.6455
638 -198.6455 182.8660
639 -213.0679 165.8374
640 -226.0349 147.6760
641 -237.4579 128.5058
642 -247.2588 108.4578
643 -255.3707 87.6689
644 -261.7381 66.2811
645 -266.3176 44.4405
646 -269.0778 22.2964
647 -270.0000 0.0000
648 -269.0778 -22.2964
649 -266.3176 -44.4405
650 -261.7381 -66.2811
651 -255.3707 -87.6689
652 -247.2588 -108.4578
653 -237.4579 -128.5058
654 -226.0349 -147.6760
655 -213.0679 -165.8374
656 -198.6455 -182.8660
657 -182.8660 -198.6455
658 -165.8374 -213.0679
659 -147.6760 -226.0349
660 -128.5058 -237.4579
661 -108.4578 -247.2588
662 -87.6689 -255.3707
663 -66.2811 -261.7381
664 -44.4405 -266.3176
665 -22.2964 -269.0778
666 -0.0000 -270.0000
667 22.2964 -269.0778
668 44.4405 -266.3176
669 66.2811 -261.7381
670 87.6689 -255.3707
671 108.4578 -247.2588
672 128.5058 -237.4579
673 147.6760 -226.0349
674 165.8374 -213.0679
675 182.8660 -198.6455
676 198.6455 -182.8660
677 213.0679 -165.8374
678 226.0349 -147.6760
679 237.4579 -128.5058
680 247.2588 -108.4578
681 255.3707 -87.6689
682 261.7381 -66.2811
683 266.3176 -44.4405
684 269.0778 -22.2964
685 300.0000 0.0000
686 298.9753 24.7738
687 295.9084 49.3784
688 290.8201 73.6456
689 283.7452 97.4098
690 274.7320 120.5086
691 263.8421 142.7842
692 251.1499 164.0844
693 236.7422 184.2638
694 220.7172 203.1845
695 203.1845 220.7172
696 184.2638 236.7422
697 164.0844 251.1499
698 142.7842 263.8421
699 120.5086 274.7320
700 97.4098 283.7452
701 73.6456 290.8201
702 49.3784 295.9084
703 24.7738 298.9753
704 0.0000 300.0000
705 -24.7738 298.9753
706 -49.3784 295.9084
707 -73.6456 290.8201
708 -97.4098 283.7452
709 -120.5086 274.7320
710 -142.7842 263.8421
711 -164.0844 251.1499
712 -184.2638 236.7422
713 -203.1845 220.7172
714 -220.7172 203.1845
715 -236.7422 184.2638
716 -251.1499 164.0844
717 -263.8421 142.7842
718 -274.7320 120.5086
719 -283.7452 97.4098
720 -290.8201 73.6456
721 -295.9084 49.3784
722 -298.9753 24.7738
723 -300.0000 0.0000
724 -298.9753 -24.7738
725 -295.9084 -49.3784
726 -290.8201 -73.6456
727 -283.7452 -97.4098
728 -274.7320 -120.5086
729 -263.8421 -142.7842
730 -251.1499 -164.0844
731 -236.7422 -184.2638
732 -220.7172 -203.1845
733 -203.1845 -220.7172
734 -184.2638 -236.7422
735 -164.0844 -251.1499
736 -142.7842 -263.8421
737 -120.5086 -274.7320
738 -97.4098 -283.7452
739 -73.6456 -290.8201
740 -49.3784 -295.9084
741 -24.7738 -298.9753
742 -0.0000 -300.0000
743 24.7738 -298.9753
744 49.3784 -295.9084
745 73.6456 -290.8201
746 97.4098 -283.7452
747 120.5086 -274.7320
748 142.7842 -263.8421
749 164.0844 -251.1499
750 184.2638 -236.7422
751 203.1845 -220.7172
752 220.7172 -203.1845
753 236.7422 -184.2638
754 251.1499 -164.0844
755 263.8421 -142.7842
756 274.7320 -120.5086
757 283.7452 -97.4098
758 290.8201 -73.6456
759 295.9084 -49.3784
760 298.9753 -24.7738
DEMAND_SECTION
1 10
2 30
3 30
4 10
5 10
6 30
7 30
8 10
9 10
10 30
11 30
12 10
13 10
14 30
15 30
16 10
17 10
18 30
19 30
20 10
21 10
22 30
23 30
24 10
25 10
26 30
27 30
28 10
29 10
30 30
31 30
32 10
33 10
34 30
35 30
36 10
37 10
38 30
39 30
40 10
41 10
42 30
43 30
44 10
45 10
46 30
47 30
48 10
49 10
50 30
51 30
52 10
53 10
54 30
55 30
56 10
57 10
58 30
59 30
60 10
61 10
62 30
63 30
64 10
65 10
66 30
67 30
68 10
69 10
70 30
71 30
72 10
73 10
74 30
75 30
76 10
77 10
78 30
79 30
80 10
81 10
82 30
83 30
84 10
85 10
86 30
87 30
88 10
89 10
90 30
91 30
92 10
93 10
94 30
95 30
96 10
97 10
98 30
99 30
100 10
101 10
102 30
103 30
104 10
105 10
106 30
107 30
108 10
109 10
110 30
111 30
112 10
113 10
114 30
115 30
116 10
117 10
118 30
119 30
120 10
121 10
122 30
123 30
124 10
125 10
126 30
127 30
128 10
129 10
130 30
131 30
132 10
133 10
134 30
135 30
136 10
137 10
138 30
139 30
140 10
141 10
142 30
143 30
144 10
145 10
146 30
147 30
148 10
149 10
150 30
151 30
152 10
153 10
154 30
155 30
156 10
157 10
158 30
159 30
160 10
161 10
162 30
163 30
164 10
165 10
166 30
167 30
168 10
169 10
170 30
171 30
172 10
173 10
174 30
175 30
176 10
177 10
178 30
179 30
180 10
181 10
182 30
183 30
184 10
185 10
186 30
187 30
188 10
189 10
190 30
191 30
192 10
193 10
194 30
195 30
196 10
197 10
198 30
199 30
200 10
201 10
202 30
203 30
204 10
205 10
206 30
207 30
208 10
209 10
210 30
211 30
212 10
213 10
214 30
215 30
216 10
217 10
218 30
219 30
220 10
221 10
222 30
223 30
224 10
225 10
226 30
227 30
228 10
229 10
230 30
231 30
232 10
233 10
234 30
235 30
236 10
237 10
238 30
239 30
240 10
241 10
242 30
243 30
244 10
245 10
246 30
247 30
248 10
249 10
250 30
251 30
252 10
253 10
254 30
255 30
256 10
257 10
258 30
259 30
260 10
261 10
262 30
263 30
264 10
265 10
266 30
267 30
268 10
269 10
270 30
271 30
272 10
273 10
274 30
275 30
276 10
277 10
278 30
279 30
280 10
281 10
282 30
283 30
284 10
285 10
286 30
287 30
288 10
289 10
290 30
291 30
292 10
293 10
294 30
295 30
296 10
297 10
298 30
299 30
300 10
301 10
302 30
303 30
304 10
305 10
306 30
307 30
308 10
309 10
310 30
311 30
312 10
313 10
314 30
315 30
316 10
317 10
318 30
319 30
320 10
321 10
322 30
323 30
324 10
325 10
326 30
327 30
328 10
329 10
330 30
331 30
332 10
333 10
334 30
335 30
336 10
337 10
338 30
339 30
340 10
341 10
342 30
343 30
344 10
345 10
346 30
347 30
348 10
349 10
350 30
351 30
352 10
353 10
354 30
355 30
356 10
357 10
358 30
359 30
360 10
361 10
362 30
363 30
364 10
365 10
366 30
367 30
368 10
369 10
370 30
371 30
372 10
373 10
374 30
375 30
376 10
377 10
378 30
379 30
380 10
381 10
382 30
383 30
384 10
385 10
386 30
387 30
388 10
389 10
390 30
391 30
392 10
393 10
394 30
395 30
396 10
397 10
398 30
399 30
400 10
401 10
402 30
403 30
404 10
405 10
406 30
407 30
408 10
409 10
410 30
411 30
412 10
413 10
414 30
415 30
416 10
417 10
418 30
419 30
420 10
421 10
422 30
423 30
424 10
425 10
426 30
427 30
428 10
429 10
430 30
431 30
432 10
433 10
434 30
435 30
436 10
437 10
438 30
439 30
440 10
441 10
442 30
443 30
444 10
445 10
446 30
447 30
448 10
449 10
450 30
451 30
452 10
453 10
454 30
455 30
456 10
457 10
458 30
459 30
460 10
461 10
462 30
463 30
464 10
465 10
466 30
467 30
468 10
469 10
470 30
471 30
472 10
473 10
474 30
475 30
476 10
477 10
478 30
479 30
480 10
481 10
482 30
483 30
484 10
485 10
486 30
487 30
488 10
489 10
490 30
491 30
492 10
493 10
494 30
495 30
496 10
497 10
498 30
499 30
500 10
501 10
502 30
503 30
504 10
505 10
506 30
507 30
508 10
509 10
510 30
511 30
512 10
513 10
514 30
515 30
516 10
517 10
518 30
519 30
520 10
521 10
522 30
523 30
524 10
525 10
526 30
527 30
528 10
529 10
530 30
531 30
532 10
533 10
534 30
535 30
536 10
537 10
538 30
539 30
540 10
541 10
542 30
543 30
544 10
545 10
546 30
547 30
548 10
549 10
550 30
551 30
552 10
553 10
554 30
555 30
556 10
557 10
558 30
559 30
560 10
561 10
562 30
563 30
564 10
565 10
566 30
567 30
568 10
569 10
570 30
571 30
572 10
573 10
574 30
575 30
576 10
577 10
578 30
579 30
580 10
581 10
582 30
583 30
584 10
585 10
586 30
587 30
588 10
589 10
590 30
591 30
592 10
593 10
594 30
595 30
596 10
597 10
598 30
599 30
600 10
601 10
602 30
603 30
604 10
605 10
606 30
607 30
608 10
609 10
610 30
611 30
612 10
613 10
614 30
615 30
616 10
617 10
618 30
619 30
620 10
621 10
622 30
623 30
624 10
625 10
626 30
627 30
628 10
629 10
630 30
631 30
632 10
633 10
634 30
635 30
636 10
637 10
638 30
639 30
640 10
641 10
642 30
643 30
644 10
645 10
646 30
647 30
648 10
649 10
650 30
651 30
652 10
653 10
654 30
655 30
656 10
657 10
658 30
659 30
660 10
661 10
662 30
663 30
664 10
665 10
666 30
667 30
668 10
669 10
670 30
671 30
672 10
673 10
674 30
675 30
676 10
677 10
678 30
679 30
680 10
681 10
682 30
683 30
684 10
685 10
686 30
687 30
688 10
689 10
690 30
691 30
692 10
693 10
694 30
695 30
696 10
697 10
698 30
699 30
700 10
701 10
702 30
703 30
704 10
705 10
706 30
707 30
708 10
709 10
710 30
711 30
712 10
713 10
714 30
715 30
716 10
717 10
718 30
719 30
720 10
721 10
722 30
723 30
724 10
725 10
726 30
727 30
728 10
729 10
730 30
731 30
732 10
733 10
734 30
735 30
736 10
737 10
738 30
739 30
740 10
741 10
742 30
743 30
744 10
745 10
746 30
747 30
748 10
749 10
750 30
751 30
752 10
753 10
754 30
755 30
756 10
757 10
758 30
759 30
760 10
DEPOT_SECTION
0.0000 0.0000
-1
EOF
